(set-info :smt-lib-version 2.6)
(set-info :category "crafted")
(set-logic QF_FF)
(define-sort FF0 () (_ FiniteField 52435875175126190479447740508185965837690552500527637822603658699938581184513))
(declare-fun out_alt () FF0)
(declare-fun _28_alt () FF0)
(declare-fun _23_alt () FF0)
(declare-fun _26_alt () FF0)
(declare-fun _5_alt () FF0)
(declare-fun _1_alt () FF0)
(declare-fun _21_alt () FF0)
(declare-fun _20_alt () FF0)
(declare-fun _3_alt () FF0)
(declare-fun _16_alt () FF0)
(declare-fun _10_alt () FF0)
(declare-fun _9_alt () FF0)
(declare-fun _2_alt () FF0)
(declare-fun _15_alt () FF0)
(declare-fun _0_alt () FF0)
(declare-fun _14_alt () FF0)
(declare-fun _13_alt () FF0)
(declare-fun _12_alt () FF0)
(declare-fun _4_alt () FF0)
(declare-fun out () FF0)
(declare-fun _28 () FF0)
(declare-fun _23 () FF0)
(declare-fun _26 () FF0)
(declare-fun _5 () FF0)
(declare-fun _1 () FF0)
(declare-fun _21 () FF0)
(declare-fun _20 () FF0)
(declare-fun _3 () FF0)
(declare-fun _16 () FF0)
(declare-fun _10 () FF0)
(declare-fun _9 () FF0)
(declare-fun _2 () FF0)
(declare-fun _15 () FF0)
(declare-fun _0 () FF0)
(declare-fun _14 () FF0)
(declare-fun _13 () FF0)
(declare-fun _12 () FF0)
(declare-fun _4 () FF0)
(assert 
  (let ((let0 out_alt))
  (let ((let1 _28_alt))
  (let ((let2 (= let1 let0)))
  (let ((let3 (as ff1 FF0)))
  (let ((let4 (as ff52435875175126190479447740508185965837690552500527637822603658699938581184512 FF0)))
  (let ((let5 _23_alt))
  (let ((let6 (ff.mul let5 let4)))
  (let ((let7 (ff.add let6 let3)))
  (let ((let8 _26_alt))
  (let ((let9 (ff.mul let8 let4)))
  (let ((let10 (ff.add let9 let3)))
  (let ((let11 (ff.mul let10 let7)))
  (let ((let12 (= let11 let1)))
  (let ((let13 _5_alt))
  (let ((let14 _1_alt))
  (let ((let15 (ff.add let14 let13 let4)))
  (let ((let16 (ff.mul let15 let15)))
  (let ((let17 (= let16 let8)))
  (let ((let18 _21_alt))
  (let ((let19 (ff.mul let18 let4)))
  (let ((let20 _20_alt))
  (let ((let21 (ff.mul let20 let4)))
  (let ((let22 (ff.add let13 let21 let19)))
  (let ((let23 (ff.mul let22 let22)))
  (let ((let24 (= let23 let5)))
  (let ((let25 _3_alt))
  (let ((let26 _16_alt))
  (let ((let27 (ff.mul let26 let4)))
  (let ((let28 (ff.add let27 let3)))
  (let ((let29 (ff.mul let28 let25)))
  (let ((let30 (= let29 let18)))
  (let ((let31 _10_alt))
  (let ((let32 _9_alt))
  (let ((let33 (ff.add let32 let31)))
  (let ((let34 (ff.mul let26 let33)))
  (let ((let35 (= let34 let20)))
  (let ((let36 _2_alt))
  (let ((let37 _15_alt))
  (let ((let38 (ff.mul let37 let36)))
  (let ((let39 (= let38 let26)))
  (let ((let40 _0_alt))
  (let ((let41 _14_alt))
  (let ((let42 (ff.mul let41 let40)))
  (let ((let43 (= let42 let37)))
  (let ((let44 _13_alt))
  (let ((let45 (ff.mul let33 let44)))
  (let ((let46 (= let45 let41)))
  (let ((let47 _12_alt))
  (let ((let48 (ff.mul let47 let25)))
  (let ((let49 (= let48 let44)))
  (let ((let50 (ff.mul let40 let14)))
  (let ((let51 (= let50 let47)))
  (let ((let52 _4_alt))
  (let ((let53 (ff.mul let52 let4)))
  (let ((let54 (ff.add let53 let3)))
  (let ((let55 (ff.mul let54 let52)))
  (let ((let56 (= let55 let31)))
  (let ((let57 (ff.mul let52 let36)))
  (let ((let58 (= let57 let32)))
  (let ((let59 (ff.mul let13 let13)))
  (let ((let60 (= let59 let13)))
  (let ((let61 (ff.mul let52 let52)))
  (let ((let62 (= let61 let52)))
  (let ((let63 (ff.mul let25 let25)))
  (let ((let64 (= let63 let25)))
  (let ((let65 (ff.mul let36 let36)))
  (let ((let66 (= let65 let36)))
  (let ((let67 (ff.mul let14 let14)))
  (let ((let68 (= let67 let14)))
  (let ((let69 (ff.mul let40 let40)))
  (let ((let70 (= let69 let40)))
  (let ((let71 (and let70 let68 let66 let64 let62 let60 let58 let56 let51 let49 let46 let43 let39 let35 let30 let24 let17 let12 let2)))
  (let ((let72 out))
  (let ((let73 _28))
  (let ((let74 (= let73 let72)))
  (let ((let75 _23))
  (let ((let76 (ff.mul let75 let4)))
  (let ((let77 (ff.add let76 let3)))
  (let ((let78 _26))
  (let ((let79 (ff.mul let78 let4)))
  (let ((let80 (ff.add let79 let3)))
  (let ((let81 (ff.mul let80 let77)))
  (let ((let82 (= let81 let73)))
  (let ((let83 _5))
  (let ((let84 _1))
  (let ((let85 (ff.add let84 let83 let4)))
  (let ((let86 (ff.mul let85 let85)))
  (let ((let87 (= let86 let78)))
  (let ((let88 _21))
  (let ((let89 (ff.mul let88 let4)))
  (let ((let90 _20))
  (let ((let91 (ff.mul let90 let4)))
  (let ((let92 (ff.add let83 let91 let89)))
  (let ((let93 (ff.mul let92 let92)))
  (let ((let94 (= let93 let75)))
  (let ((let95 _3))
  (let ((let96 _16))
  (let ((let97 (ff.mul let96 let4)))
  (let ((let98 (ff.add let97 let3)))
  (let ((let99 (ff.mul let98 let95)))
  (let ((let100 (= let99 let88)))
  (let ((let101 _10))
  (let ((let102 _9))
  (let ((let103 (ff.add let102 let101)))
  (let ((let104 (ff.mul let96 let103)))
  (let ((let105 (= let104 let90)))
  (let ((let106 _2))
  (let ((let107 _15))
  (let ((let108 (ff.mul let107 let106)))
  (let ((let109 (= let108 let96)))
  (let ((let110 _0))
  (let ((let111 _14))
  (let ((let112 (ff.mul let111 let110)))
  (let ((let113 (= let112 let107)))
  (let ((let114 _13))
  (let ((let115 (ff.mul let103 let114)))
  (let ((let116 (= let115 let111)))
  (let ((let117 _12))
  (let ((let118 (ff.mul let117 let95)))
  (let ((let119 (= let118 let114)))
  (let ((let120 (ff.mul let110 let84)))
  (let ((let121 (= let120 let117)))
  (let ((let122 _4))
  (let ((let123 (ff.mul let122 let4)))
  (let ((let124 (ff.add let123 let3)))
  (let ((let125 (ff.mul let124 let122)))
  (let ((let126 (= let125 let101)))
  (let ((let127 (ff.mul let122 let106)))
  (let ((let128 (= let127 let102)))
  (let ((let129 (ff.mul let83 let83)))
  (let ((let130 (= let129 let83)))
  (let ((let131 (ff.mul let122 let122)))
  (let ((let132 (= let131 let122)))
  (let ((let133 (ff.mul let95 let95)))
  (let ((let134 (= let133 let95)))
  (let ((let135 (ff.mul let106 let106)))
  (let ((let136 (= let135 let106)))
  (let ((let137 (ff.mul let84 let84)))
  (let ((let138 (= let137 let84)))
  (let ((let139 (ff.mul let110 let110)))
  (let ((let140 (= let139 let110)))
  (let ((let141 (and let140 let138 let136 let134 let132 let130 let128 let126 let121 let119 let116 let113 let109 let105 let100 let94 let87 let82 let74)))
  (let ((let142 (= let72 let0)))
  (let ((let143 (not let142)))
  (let ((let144 (= let83 let13)))
  (let ((let145 (= let106 let36)))
  (let ((let146 (= let122 let52)))
  (let ((let147 (= let95 let25)))
  (let ((let148 (= let110 let40)))
  (let ((let149 (= let84 let14)))
  (let ((let150 (and let149 let148 let147 let146 let145 let144)))
  (let ((let151 (and let150 let143 let141 let71)))
  let151
))))))))))))))))))))))))))))))))))))))))))))))))))))))))))))))))))))))))))))))))))))))))))))))))))))))))))))))))))))))))))))))))))))))))))))))))))))))))
)
(check-sat)
